N = 8;
H = 5;
T = 2;

avail = array3d(1..N, 1..H, 1..T, [6, 1, 5, 6, 2, 9, 10, 10, 5, 4, 10, 2, 4, 2, 5, 3, 5, 7, 5, 9, 3, 8, 6, 0, 0, 0, 10, 9, 2, 7, 8, 8, 10, 0, 5, 10, 6, 3, 7, 5, 10, 5, 5, 5, 2, 10, 7, 0, 8, 2, 1, 2, 1, 4, 9, 10, 9, 1, 0, 7, 9, 3, 3, 3, 1, 4, 4, 7, 3, 10, 5, 7, 0, 4, 3, 5, 10, 6, 4, 9]);

r = array2d(1..H, 1..T, [2, 1, 1, 4, 1, 3, 2, 3, 0, 2]);
